results/mps/Fattahi_setup_07.mps
NAME F-JSSP-SDST
ROWS
 N  OBJ
 E  c0      
 E  c1      
 E  c2      
 E  c3      
 E  c4      
 E  c5      
 E  c6      
 E  c7      
 E  c8      
 L  c9      
 L  c10     
 L  c11     
 L  c12     
 L  c13     
 L  c14     
 L  c15     
 L  c16     
 L  c17     
 L  c18     
 L  c19     
 L  c20     
 L  c21     
 L  c22     
 L  c23     
 L  c24     
 L  c25     
 L  c26     
 G  c27     
 G  c28     
 G  c29     
 G  c30     
 G  c31     
 G  c32     
 G  c33     
 G  c34     
 G  c35     
 G  c36     
 G  c37     
 G  c38     
 G  c39     
 G  c40     
 G  c41     
 G  c42     
 G  c43     
 G  c44     
 G  c45     
 G  c46     
 G  c47     
 G  c48     
 G  c49     
 G  c50     
 G  c51     
 G  c52     
 G  c53     
 G  c54     
 G  c55     
 G  c56     
 G  c57     
 G  c58     
 G  c59     
 G  c60     
 G  c61     
 G  c62     
 G  c63     
 G  c64     
 G  c65     
 G  c66     
 G  c67     
 G  c68     
 G  c69     
 G  c70     
 G  c71     
 G  c72     
 G  c73     
 G  c74     
 G  c75     
 G  c76     
 G  c77     
 G  c78     
 G  c79     
 G  c80     
 G  c81     
 G  c82     
 G  c83     
 G  c84     
 G  c85     
 G  c86     
 G  c87     
 G  c88     
 G  c89     
 G  c90     
 G  c91     
 E  c92     
COLUMNS
    MARKER    'MARKER'                 'INTORG'
    B0(9)     c0        1
    B0(9)     c9        -1000000000
    B0(9)     c27       -117
    B0(9)     c28       -117
    B0(9)     c38       -1000000000
    B0(9)     c39       -1000000000
    B0(9)     c42       -1000000000
    B0(9)     c43       -1000000000
    B0(9)     c92       -117
    B1(9)     c0        1
    B1(9)     c10       -1000000000
    B1(9)     c27       -125
    B1(9)     c28       -1000000125
    B1(9)     c40       -1000000000
    B1(9)     c41       -1000000000
    B1(9)     c44       -1000000000
    B1(9)     c45       -1000000000
    B1(9)     c92       -125
    B2(9)     c1        1
    B2(9)     c11       -1000000000
    B2(9)     c29       -140
    B2(9)     c30       -1000000140
    B2(9)     c50       -1000000000
    B2(9)     c51       -1000000000
    B2(9)     c52       -1000000000
    B2(9)     c53       -1000000000
    B2(9)     c92       -140
    B3(10)    c1        1
    B3(10)    c12       -1000000000
    B3(10)    c28       -1000000000
    B3(10)    c29       -130
    B3(10)    c30       -130
    B3(10)    c46       -1000000000
    B3(10)    c47       -1000000000
    B3(10)    c48       -1000000000
    B3(10)    c49       -1000000000
    B3(10)    c92       -130
    B4(8)     c2        1
    B4(8)     c13       -1000000000
    B4(8)     c30       -1000000000
    B4(8)     c56       -1000000000
    B4(8)     c57       -1000000000
    B4(8)     c58       -1000000000
    B4(8)     c59       -1000000000
    B4(8)     c92       -150
    B5(7)     c2        1
    B5(7)     c14       -1000000000
    B5(7)     c54       -1000000000
    B5(7)     c55       -1000000000
    B5(7)     c60       -1000000000
    B5(7)     c61       -1000000000
    B5(7)     c92       -160
    B6(9)     c3        1
    B6(9)     c15       -1000000000
    B6(9)     c31       -214
    B6(9)     c32       -214
    B6(9)     c38       -1000000000
    B6(9)     c39       -1000000000
    B6(9)     c62       -1000000000
    B6(9)     c63       -1000000000
    B6(9)     c92       -214
    B7(7)     c3        1
    B7(7)     c16       -1000000000
    B7(7)     c31       -150
    B7(7)     c32       -1000000150
    B7(7)     c64       -1000000000
    B7(7)     c65       -1000000000
    B7(7)     c92       -150
    B8(8)     c4        1
    B8(8)     c17       -1000000000
    B8(8)     c32       -1000000000
    B8(8)     c33       -55
    B8(8)     c34       -1000000055
    B8(8)     c68       -1000000000
    B8(8)     c69       -1000000000
    B8(8)     c92       -55
    B9(11)    c4        1
    B9(11)    c18       -1000000000
    B9(11)    c33       -66
    B9(11)    c34       -66
    B9(11)    c40       -1000000000
    B9(11)    c41       -1000000000
    B9(11)    c46       -1000000000
    B9(11)    c47       -1000000000
    B9(11)    c66       -1000000000
    B9(11)    c67       -1000000000
    B9(11)    c92       -66
    B10(7)    c5        1
    B10(7)    c19       -1000000000
    B10(7)    c54       -1000000000
    B10(7)    c55       -1000000000
    B10(7)    c72       -1000000000
    B10(7)    c73       -1000000000
    B10(7)    c92       -78
    B11(6)    c5        1
    B11(6)    c20       -1000000000
    B11(6)    c34       -1000000000
    B11(6)    c70       -1000000000
    B11(6)    c71       -1000000000
    B11(6)    c92       -65
    B12(8)    c6        1
    B12(8)    c21       -1000000000
    B12(8)    c35       -87
    B12(8)    c42       -1000000000
    B12(8)    c43       -1000000000
    B12(8)    c62       -1000000000
    B12(8)    c63       -1000000000
    B12(8)    c92       -87
    B13(10)   c6        1
    B13(10)   c22       -1000000000
    B13(10)   c35       -62
    B13(10)   c44       -1000000000
    B13(10)   c45       -1000000000
    B13(10)   c48       -1000000000
    B13(10)   c49       -1000000000
    B13(10)   c66       -1000000000
    B13(10)   c67       -1000000000
    B13(10)   c92       -62
    B14(9)    c7        1
    B14(9)    c23       -1000000000
    B14(9)    c36       -70
    B14(9)    c37       -1000000070
    B14(9)    c50       -1000000000
    B14(9)    c51       -1000000000
    B14(9)    c56       -1000000000
    B14(9)    c57       -1000000000
    B14(9)    c92       -70
    B15(11)   c7        1
    B15(11)   c24       -1000000000
    B15(11)   c36       -80
    B15(11)   c37       -80
    B15(11)   c64       -1000000000
    B15(11)   c65       -1000000000
    B15(11)   c68       -1000000000
    B15(11)   c69       -1000000000
    B15(11)   c70       -1000000000
    B15(11)   c71       -1000000000
    B15(11)   c92       -80
    B16(8)    c8        1
    B16(8)    c25       -1000000000
    B16(8)    c37       -1000000000
    B16(8)    c52       -1000000000
    B16(8)    c53       -1000000000
    B16(8)    c58       -1000000000
    B16(8)    c59       -1000000000
    B16(8)    c92       -190
    B17(7)    c8        1
    B17(7)    c26       -1000000000
    B17(7)    c60       -1000000000
    B17(7)    c61       -1000000000
    B17(7)    c72       -1000000000
    B17(7)    c73       -1000000000
    B17(7)    c92       -100
    B18(2)    c38       -1000000000
    B18(2)    c39       1000000000
    B19(2)    c40       -1000000000
    B19(2)    c41       1000000000
    B20(2)    c42       -1000000000
    B20(2)    c43       1000000000
    B21(2)    c44       -1000000000
    B21(2)    c45       1000000000
    B22(2)    c46       -1000000000
    B22(2)    c47       1000000000
    B23(2)    c48       -1000000000
    B23(2)    c49       1000000000
    B24(2)    c50       -1000000000
    B24(2)    c51       1000000000
    B25(2)    c52       -1000000000
    B25(2)    c53       1000000000
    B26(2)    c54       -1000000000
    B26(2)    c55       1000000000
    B27(2)    c56       -1000000000
    B27(2)    c57       1000000000
    B28(2)    c58       -1000000000
    B28(2)    c59       1000000000
    B29(2)    c60       -1000000000
    B29(2)    c61       1000000000
    B30(2)    c62       -1000000000
    B30(2)    c63       1000000000
    B31(2)    c64       -1000000000
    B31(2)    c65       1000000000
    B32(2)    c66       -1000000000
    B32(2)    c67       1000000000
    B33(2)    c68       -1000000000
    B33(2)    c69       1000000000
    B34(2)    c70       -1000000000
    B34(2)    c71       1000000000
    B35(2)    c72       -1000000000
    B35(2)    c73       1000000000
    MARKER    'MARKER'                 'INTEND'
    C36(9)    c9        1
    C36(9)    c27       -1
    C36(9)    c28       -1
    C36(9)    c38       1
    C36(9)    c39       -1
    C36(9)    c42       1
    C36(9)    c43       -1
    C36(9)    c74       1
    C36(9)    c92       -1
    C37(9)    c10       1
    C37(9)    c27       -1
    C37(9)    c28       -1
    C37(9)    c40       1
    C37(9)    c41       -1
    C37(9)    c44       1
    C37(9)    c45       -1
    C37(9)    c75       1
    C37(9)    c92       -1
    C38(11)   c11       1
    C38(11)   c27       1
    C38(11)   c28       1
    C38(11)   c29       -1
    C38(11)   c30       -1
    C38(11)   c50       1
    C38(11)   c51       -1
    C38(11)   c52       1
    C38(11)   c53       -1
    C38(11)   c76       1
    C38(11)   c92       -1
    C39(11)   c12       1
    C39(11)   c27       1
    C39(11)   c28       1
    C39(11)   c29       -1
    C39(11)   c30       -1
    C39(11)   c46       1
    C39(11)   c47       -1
    C39(11)   c48       1
    C39(11)   c49       -1
    C39(11)   c77       1
    C39(11)   c92       -1
    C40(9)    c13       1
    C40(9)    c29       1
    C40(9)    c30       1
    C40(9)    c56       1
    C40(9)    c57       -1
    C40(9)    c58       1
    C40(9)    c59       -1
    C40(9)    c78       1
    C40(9)    c92       -1
    C41(9)    c14       1
    C41(9)    c29       1
    C41(9)    c30       1
    C41(9)    c54       1
    C41(9)    c55       -1
    C41(9)    c60       1
    C41(9)    c61       -1
    C41(9)    c79       1
    C41(9)    c92       -1
    C42(9)    c15       1
    C42(9)    c31       -1
    C42(9)    c32       -1
    C42(9)    c38       -1
    C42(9)    c39       1
    C42(9)    c62       1
    C42(9)    c63       -1
    C42(9)    c80       1
    C42(9)    c92       -1
    C43(7)    c16       1
    C43(7)    c31       -1
    C43(7)    c32       -1
    C43(7)    c64       1
    C43(7)    c65       -1
    C43(7)    c81       1
    C43(7)    c92       -1
    C44(9)    c17       1
    C44(9)    c31       1
    C44(9)    c32       1
    C44(9)    c33       -1
    C44(9)    c34       -1
    C44(9)    c68       1
    C44(9)    c69       -1
    C44(9)    c82       1
    C44(9)    c92       -1
    C45(13)   c18       1
    C45(13)   c31       1
    C45(13)   c32       1
    C45(13)   c33       -1
    C45(13)   c34       -1
    C45(13)   c40       -1
    C45(13)   c41       1
    C45(13)   c46       -1
    C45(13)   c47       1
    C45(13)   c66       1
    C45(13)   c67       -1
    C45(13)   c83       1
    C45(13)   c92       -1
    C46(9)    c19       1
    C46(9)    c33       1
    C46(9)    c34       1
    C46(9)    c54       -1
    C46(9)    c55       1
    C46(9)    c72       1
    C46(9)    c73       -1
    C46(9)    c84       1
    C46(9)    c92       -1
    C47(7)    c20       1
    C47(7)    c33       1
    C47(7)    c34       1
    C47(7)    c70       1
    C47(7)    c71       -1
    C47(7)    c85       1
    C47(7)    c92       -1
    C48(8)    c21       1
    C48(8)    c35       -1
    C48(8)    c42       -1
    C48(8)    c43       1
    C48(8)    c62       -1
    C48(8)    c63       1
    C48(8)    c86       1
    C48(8)    c92       -1
    C49(10)   c22       1
    C49(10)   c35       -1
    C49(10)   c44       -1
    C49(10)   c45       1
    C49(10)   c48       -1
    C49(10)   c49       1
    C49(10)   c66       -1
    C49(10)   c67       1
    C49(10)   c87       1
    C49(10)   c92       -1
    C50(10)   c23       1
    C50(10)   c35       1
    C50(10)   c36       -1
    C50(10)   c37       -1
    C50(10)   c50       -1
    C50(10)   c51       1
    C50(10)   c56       -1
    C50(10)   c57       1
    C50(10)   c88       1
    C50(10)   c92       -1
    C51(12)   c24       1
    C51(12)   c35       1
    C51(12)   c36       -1
    C51(12)   c37       -1
    C51(12)   c64       -1
    C51(12)   c65       1
    C51(12)   c68       -1
    C51(12)   c69       1
    C51(12)   c70       -1
    C51(12)   c71       1
    C51(12)   c89       1
    C51(12)   c92       -1
    C52(9)    c25       1
    C52(9)    c36       1
    C52(9)    c37       1
    C52(9)    c52       -1
    C52(9)    c53       1
    C52(9)    c58       -1
    C52(9)    c59       1
    C52(9)    c90       1
    C52(9)    c92       -1
    C53(9)    c26       1
    C53(9)    c36       1
    C53(9)    c37       1
    C53(9)    c60       -1
    C53(9)    c61       1
    C53(9)    c72       -1
    C53(9)    c73       1
    C53(9)    c91       1
    C53(9)    c92       -1
    C54(1)    OBJ       1
    C54(1)    c92       1
RHS
    RHS1      c0        1
    RHS1      c1        1
    RHS1      c2        1
    RHS1      c3        1
    RHS1      c4        1
    RHS1      c5        1
    RHS1      c6        1
    RHS1      c7        1
    RHS1      c8        1
    RHS1      c28       -1999999991
    RHS1      c30       -1999999990
    RHS1      c32       -1999999990
    RHS1      c34       -1999999986
    RHS1      c37       -1999999990
    RHS1      c38       -2999999777
    RHS1      c39       -1999999870
    RHS1      c40       -2999999923
    RHS1      c41       -1999999866
    RHS1      c42       -2999999902
    RHS1      c43       -1999999871
    RHS1      c44       -2999999923
    RHS1      c45       -1999999865
    RHS1      c46       -2999999921
    RHS1      c47       -1999999857
    RHS1      c48       -2999999928
    RHS1      c49       -1999999860
    RHS1      c50       -2999999920
    RHS1      c51       -1999999850
    RHS1      c52       -2999999799
    RHS1      c53       -1999999851
    RHS1      c54       -2999999910
    RHS1      c55       -1999999830
    RHS1      c56       -2999999920
    RHS1      c57       -1999999837
    RHS1      c58       -2999999800
    RHS1      c59       -1999999838
    RHS1      c60       -2999999891
    RHS1      c61       -1999999828
    RHS1      c62       -2999999901
    RHS1      c63       -1999999772
    RHS1      c64       -2999999910
    RHS1      c65       -1999999840
    RHS1      c66       -2999999925
    RHS1      c67       -1999999922
    RHS1      c68       -2999999908
    RHS1      c69       -1999999936
    RHS1      c70       -2999999909
    RHS1      c71       -1999999923
    RHS1      c72       -2999999886
    RHS1      c73       -1999999912
BOUNDS
 BV BND1      B0(9)   
 BV BND1      B1(9)   
 BV BND1      B2(9)   
 BV BND1      B3(10)  
 BV BND1      B4(8)   
 BV BND1      B5(7)   
 BV BND1      B6(9)   
 BV BND1      B7(7)   
 BV BND1      B8(8)   
 BV BND1      B9(11)  
 BV BND1      B10(7)  
 BV BND1      B11(6)  
 BV BND1      B12(8)  
 BV BND1      B13(10) 
 BV BND1      B14(9)  
 BV BND1      B15(11) 
 BV BND1      B16(8)  
 BV BND1      B17(7)  
 BV BND1      B18(2)  
 BV BND1      B19(2)  
 BV BND1      B20(2)  
 BV BND1      B21(2)  
 BV BND1      B22(2)  
 BV BND1      B23(2)  
 BV BND1      B24(2)  
 BV BND1      B25(2)  
 BV BND1      B26(2)  
 BV BND1      B27(2)  
 BV BND1      B28(2)  
 BV BND1      B29(2)  
 BV BND1      B30(2)  
 BV BND1      B31(2)  
 BV BND1      B32(2)  
 BV BND1      B33(2)  
 BV BND1      B34(2)  
 BV BND1      B35(2)  
ENDATA
