.old/.old_results_backup1/sol/Fattahi_setup_07.sol
# Solution for model F-JSSP-SDST
# Objective value = 1846
B0(9) 1
B1(9) 0
B2(9) 0
B3(10) 1
B4(8) 1
B5(7) 0
B6(9) 0
B7(7) 1
B8(8) 1
B9(11) 0
B10(7) 0
B11(6) 1
B12(8) 0
B13(10) 1
B14(9) 1
B15(11) 0
B16(8) 0
B17(7) 1
B18(2) 0
B19(2) 0
B20(2) 1
B21(2) 0
B22(2) 0
B23(2) 1
B24(2) 1
B25(2) 0
B26(2) 0
B27(2) 1
B28(2) 0
B29(2) 0
B30(2) 1
B31(2) 0
B32(2) 0
B33(2) 0
B34(2) 0
B35(2) 0
C36(9) 0
C37(9) 0
C38(11) 0
C39(11) 117
C40(9) 247
C41(9) 0
C42(9) 0
C43(7) 0
C44(9) 160
C45(13) 0
C46(9) 0
C47(7) 229
C48(8) 0
C49(10) 0
C50(10) 62
C51(12) 0
C52(9) 0
C53(9) 132
C54(1) 1846
